NAME : hexagon_3d
COMMENT : simple instance for testing in the shape of an hexagon
TYPE : TSP
DIMENSION: 12
EDGE_WEIGHT_TYPE : EUC_3D
NODE_COORD_SECTION
  1 10 30 0
  2 20 20 2
  3 0 20 1
  4 0 0 0
  5 10 -10 1
  6 20 0 2
  7 20 10 0
  8 0 10 0
  9 5 25 1
 10 15 25 2
 11 15 -5 0
 12 5 -5 1
EOF